
--- Job StableMarriage2.gms Start 08/16/21 08:40:30 35.2.0 r33388c4 WEX-WEI x86 64bit/MS Windows
--- Applying:
    C:\GAMS\35\gmsprmNT.txt
    C:\Users\Erwin\Documents\GAMS\gamsconfig.yaml
--- GAMS Parameters defined
    Input D:\projects\OptimizationModels\StableMarriage\StableMarriage2.gms
    PageWidth 120
    PageSize 0
    PageContr 3
    Action CE
    ScrDir D:\projects\OptimizationModels\StableMarriage\225a\
    SysDir C:\GAMS\35\
    WorkDir D:\projects\OptimizationModels\StableMarriage\
    LogOption 3
    DFormat 0
    TFormat 0
    ErrorLog 99
    IDE 1
Licensee: Eval License                                   S201210/0001CO-GEN
          Amsterdam Optimization Modeling Group,                     DCE378
          C:\Users\Erwin\Documents\GAMS\gamslice.txt
          Evaluation license: Not for commercial or production use
GAMS 35.2.0   Copyright (C) 1987-2021 GAMS Development. All rights reserved
--- Starting compilation
--- StableMarriage2.gms(121) 3 Mb
--- Starting execution: elapsed 0:00:00.038
--- StableMarriage2.gms(109) 4 Mb
--- Generating MIP model Enumerate
--- StableMarriage2.gms(110) 4 Mb
--- LOOPS sol = sol1
---   81 rows  65 columns  577 non-zeroes
---   64 discrete-columns
--- Executing CPLEX (Solvelink=5): elapsed 0:00:00.076

IBM ILOG CPLEX   35.2.0 r33388c4 Released Jun 02, 2021 WEI x86 64bit/MS Window

--- GAMS/Cplex Link licensed for continuous and discrete problems.
--- GMO memory 0.52 Mb (peak 0.52 Mb)
--- Dictionary memory 0.00 Mb
--- Cplex 20.1.0.1 link memory 0.00 Mb (peak 0.01 Mb)
--- Starting Cplex

Version identifier: 20.1.0.1 | 2021-04-07 | 3a818710c
CPXPARAM_Advance                                 0
CPXPARAM_Threads                                 1
CPXPARAM_MIP_Display                             4
CPXPARAM_MIP_Tolerances_AbsMIPGap                0
Generic callback                                 0x50
Found incumbent of value 0.000000 after 0.00 sec. (0.02 ticks)

Root node processing (before b&c):
  Real time             =    0.00 sec. (0.02 ticks)
Sequential b&c:
  Real time             =    0.00 sec. (0.00 ticks)
                          ------------
Total (root+branch&cut) =    0.00 sec. (0.02 ticks)

--- MIP status (101): integer optimal solution.
--- Cplex Time: 0.09sec (det. 0.02 ticks)

--- Fixing integer variables and solving final LP...

Version identifier: 20.1.0.1 | 2021-04-07 | 3a818710c
CPXPARAM_Advance                                 2
CPXPARAM_Threads                                 1
CPXPARAM_MIP_Display                             4
CPXPARAM_MIP_Tolerances_AbsMIPGap                0
Tried aggregator 1 time.
LP Presolve eliminated 80 rows and 65 columns.
All rows and columns eliminated.
Presolve time = 0.00 sec. (0.05 ticks)

--- Fixed MIP status (1): optimal.
--- Cplex Time: 0.00sec (det. 0.07 ticks)


Proven optimal solution
MIP Solution:            0.000000    (0 iterations, 0 nodes)
Final Solve:             0.000000    (0 iterations)

Best possible:           0.000000
Absolute gap:            0.000000
Relative gap:            0.000000

--- Reading solution for model Enumerate
--- Executing after solve: elapsed 0:00:00.298
--- StableMarriage2.gms(109) 4 Mb
--- Generating MIP model Enumerate
--- StableMarriage2.gms(110) 4 Mb
--- LOOPS sol = sol2
---   82 rows  65 columns  585 non-zeroes
---   64 discrete-columns
--- Executing CPLEX (Solvelink=5): elapsed 0:00:00.307

IBM ILOG CPLEX   35.2.0 r33388c4 Released Jun 02, 2021 WEI x86 64bit/MS Window

--- GAMS/Cplex Link licensed for continuous and discrete problems.
--- GMO memory 0.52 Mb (peak 0.52 Mb)
--- Dictionary memory 0.00 Mb
--- Cplex 20.1.0.1 link memory 0.00 Mb (peak 0.01 Mb)
--- Starting Cplex

Version identifier: 20.1.0.1 | 2021-04-07 | 3a818710c
CPXPARAM_Advance                                 0
CPXPARAM_Threads                                 1
CPXPARAM_MIP_Display                             4
CPXPARAM_MIP_Tolerances_AbsMIPGap                0
Generic callback                                 0x50
Tried aggregator 2 times.
MIP Presolve eliminated 56 rows and 44 columns.
MIP Presolve modified 10 coefficients.
Aggregator did 5 substitutions.
Reduced MIP has 20 rows, 16 columns, and 70 nonzeros.
Reduced MIP has 16 binaries, 0 generals, 0 SOSs, and 0 indicators.
Presolve time = 0.02 sec. (0.26 ticks)
Found incumbent of value 0.000000 after 0.02 sec. (0.38 ticks)

Root node processing (before b&c):
  Real time             =    0.02 sec. (0.38 ticks)
Sequential b&c:
  Real time             =    0.00 sec. (0.00 ticks)
                          ------------
Total (root+branch&cut) =    0.02 sec. (0.38 ticks)

--- MIP status (101): integer optimal solution.
--- Cplex Time: 0.02sec (det. 0.38 ticks)

--- Fixing integer variables and solving final LP...

Version identifier: 20.1.0.1 | 2021-04-07 | 3a818710c
CPXPARAM_Advance                                 2
CPXPARAM_Threads                                 1
CPXPARAM_MIP_Display                             4
CPXPARAM_MIP_Tolerances_AbsMIPGap                0
Tried aggregator 1 time.
LP Presolve eliminated 81 rows and 65 columns.
All rows and columns eliminated.
Presolve time = 0.00 sec. (0.05 ticks)

--- Fixed MIP status (1): optimal.
--- Cplex Time: 0.00sec (det. 0.07 ticks)


Proven optimal solution
MIP Solution:            0.000000    (0 iterations, 0 nodes)
Final Solve:             0.000000    (0 iterations)

Best possible:           0.000000
Absolute gap:            0.000000
Relative gap:            0.000000

--- Reading solution for model Enumerate
--- Executing after solve: elapsed 0:00:00.436
--- StableMarriage2.gms(109) 4 Mb
--- Generating MIP model Enumerate
--- StableMarriage2.gms(110) 4 Mb
--- LOOPS sol = sol3
---   83 rows  65 columns  593 non-zeroes
---   64 discrete-columns
--- Executing CPLEX (Solvelink=5): elapsed 0:00:00.446

IBM ILOG CPLEX   35.2.0 r33388c4 Released Jun 02, 2021 WEI x86 64bit/MS Window

--- GAMS/Cplex Link licensed for continuous and discrete problems.
--- GMO memory 0.52 Mb (peak 0.52 Mb)
--- Dictionary memory 0.00 Mb
--- Cplex 20.1.0.1 link memory 0.00 Mb (peak 0.01 Mb)
--- Starting Cplex

Version identifier: 20.1.0.1 | 2021-04-07 | 3a818710c
CPXPARAM_Advance                                 0
CPXPARAM_Threads                                 1
CPXPARAM_MIP_Display                             4
CPXPARAM_MIP_Tolerances_AbsMIPGap                0
Generic callback                                 0x50
Tried aggregator 3 times.
MIP Presolve eliminated 67 rows and 51 columns.
MIP Presolve modified 22 coefficients.
Aggregator did 9 substitutions.
Reduced MIP has 6 rows, 5 columns, and 15 nonzeros.
Reduced MIP has 5 binaries, 0 generals, 0 SOSs, and 0 indicators.
Presolve time = 0.02 sec. (0.34 ticks)
Found incumbent of value 0.000000 after 0.02 sec. (0.36 ticks)

Root node processing (before b&c):
  Real time             =    0.02 sec. (0.36 ticks)
Sequential b&c:
  Real time             =    0.00 sec. (0.00 ticks)
                          ------------
Total (root+branch&cut) =    0.02 sec. (0.36 ticks)

--- MIP status (101): integer optimal solution.
--- Cplex Time: 0.02sec (det. 0.36 ticks)

--- Fixing integer variables and solving final LP...

Version identifier: 20.1.0.1 | 2021-04-07 | 3a818710c
CPXPARAM_Advance                                 2
CPXPARAM_Threads                                 1
CPXPARAM_MIP_Display                             4
CPXPARAM_MIP_Tolerances_AbsMIPGap                0
Tried aggregator 1 time.
LP Presolve eliminated 82 rows and 65 columns.
All rows and columns eliminated.
Presolve time = 0.00 sec. (0.05 ticks)

--- Fixed MIP status (1): optimal.
--- Cplex Time: 0.08sec (det. 0.08 ticks)


Proven optimal solution
MIP Solution:            0.000000    (0 iterations, 0 nodes)
Final Solve:             0.000000    (0 iterations)

Best possible:           0.000000
Absolute gap:            0.000000
Relative gap:            0.000000

--- Reading solution for model Enumerate
--- Executing after solve: elapsed 0:00:00.587
--- StableMarriage2.gms(109) 4 Mb
--- Generating MIP model Enumerate
--- StableMarriage2.gms(110) 4 Mb
--- LOOPS sol = sol4
---   84 rows  65 columns  601 non-zeroes
---   64 discrete-columns
--- Executing CPLEX (Solvelink=5): elapsed 0:00:00.598

IBM ILOG CPLEX   35.2.0 r33388c4 Released Jun 02, 2021 WEI x86 64bit/MS Window

--- GAMS/Cplex Link licensed for continuous and discrete problems.
--- GMO memory 0.52 Mb (peak 0.52 Mb)
--- Dictionary memory 0.00 Mb
--- Cplex 20.1.0.1 link memory 0.00 Mb (peak 0.01 Mb)
--- Starting Cplex

Version identifier: 20.1.0.1 | 2021-04-07 | 3a818710c
CPXPARAM_Advance                                 0
CPXPARAM_Threads                                 1
CPXPARAM_MIP_Display                             4
CPXPARAM_MIP_Tolerances_AbsMIPGap                0
Generic callback                                 0x50
Tried aggregator 4 times.
MIP Presolve eliminated 68 rows and 51 columns.
MIP Presolve modified 27 coefficients.
Aggregator did 10 substitutions.
Reduced MIP has 5 rows, 4 columns, and 10 nonzeros.
Reduced MIP has 4 binaries, 0 generals, 0 SOSs, and 0 indicators.
Presolve time = 0.03 sec. (0.37 ticks)
Found incumbent of value 0.000000 after 0.03 sec. (0.40 ticks)

Root node processing (before b&c):
  Real time             =    0.03 sec. (0.40 ticks)
Sequential b&c:
  Real time             =    0.00 sec. (0.00 ticks)
                          ------------
Total (root+branch&cut) =    0.03 sec. (0.40 ticks)

--- MIP status (101): integer optimal solution.
--- Cplex Time: 0.03sec (det. 0.40 ticks)

--- Fixing integer variables and solving final LP...

Version identifier: 20.1.0.1 | 2021-04-07 | 3a818710c
CPXPARAM_Advance                                 2
CPXPARAM_Threads                                 1
CPXPARAM_MIP_Display                             4
CPXPARAM_MIP_Tolerances_AbsMIPGap                0
Tried aggregator 1 time.
LP Presolve eliminated 83 rows and 65 columns.
All rows and columns eliminated.
Presolve time = 0.00 sec. (0.05 ticks)

--- Fixed MIP status (1): optimal.
--- Cplex Time: 0.06sec (det. 0.08 ticks)


Proven optimal solution
MIP Solution:            0.000000    (0 iterations, 0 nodes)
Final Solve:             0.000000    (0 iterations)

Best possible:           0.000000
Absolute gap:            0.000000
Relative gap:            0.000000

--- Reading solution for model Enumerate
--- Executing after solve: elapsed 0:00:00.743
--- StableMarriage2.gms(109) 4 Mb
--- Generating MIP model Enumerate
--- StableMarriage2.gms(110) 4 Mb
--- LOOPS sol = sol5
---   85 rows  65 columns  609 non-zeroes
---   64 discrete-columns
--- Executing CPLEX (Solvelink=5): elapsed 0:00:00.754

IBM ILOG CPLEX   35.2.0 r33388c4 Released Jun 02, 2021 WEI x86 64bit/MS Window

--- GAMS/Cplex Link licensed for continuous and discrete problems.
--- GMO memory 0.52 Mb (peak 0.52 Mb)
--- Dictionary memory 0.00 Mb
--- Cplex 20.1.0.1 link memory 0.00 Mb (peak 0.01 Mb)
--- Starting Cplex

Version identifier: 20.1.0.1 | 2021-04-07 | 3a818710c
CPXPARAM_Advance                                 0
CPXPARAM_Threads                                 1
CPXPARAM_MIP_Display                             4
CPXPARAM_MIP_Tolerances_AbsMIPGap                0
Generic callback                                 0x50
Tried aggregator 3 times.
MIP Presolve eliminated 66 rows and 49 columns.
MIP Presolve modified 31 coefficients.
Aggregator did 9 substitutions.
Reduced MIP has 9 rows, 7 columns, and 27 nonzeros.
Reduced MIP has 7 binaries, 0 generals, 0 SOSs, and 0 indicators.
Presolve time = 0.00 sec. (0.36 ticks)
Found incumbent of value 0.000000 after 0.00 sec. (0.41 ticks)

Root node processing (before b&c):
  Real time             =    0.00 sec. (0.41 ticks)
Sequential b&c:
  Real time             =    0.00 sec. (0.00 ticks)
                          ------------
Total (root+branch&cut) =    0.00 sec. (0.41 ticks)

--- MIP status (101): integer optimal solution.
--- Cplex Time: 0.03sec (det. 0.41 ticks)

--- Fixing integer variables and solving final LP...

Version identifier: 20.1.0.1 | 2021-04-07 | 3a818710c
CPXPARAM_Advance                                 2
CPXPARAM_Threads                                 1
CPXPARAM_MIP_Display                             4
CPXPARAM_MIP_Tolerances_AbsMIPGap                0
Tried aggregator 1 time.
LP Presolve eliminated 84 rows and 65 columns.
All rows and columns eliminated.
Presolve time = 0.00 sec. (0.05 ticks)

--- Fixed MIP status (1): optimal.
--- Cplex Time: 0.00sec (det. 0.08 ticks)


Proven optimal solution
MIP Solution:            0.000000    (0 iterations, 0 nodes)
Final Solve:             0.000000    (0 iterations)

Best possible:           0.000000
Absolute gap:            0.000000
Relative gap:            0.000000

--- Reading solution for model Enumerate
--- Executing after solve: elapsed 0:00:00.882
--- StableMarriage2.gms(109) 4 Mb
--- Generating MIP model Enumerate
--- StableMarriage2.gms(110) 4 Mb
--- LOOPS sol = sol6
---   86 rows  65 columns  617 non-zeroes
---   64 discrete-columns
--- Executing CPLEX (Solvelink=5): elapsed 0:00:00.890

IBM ILOG CPLEX   35.2.0 r33388c4 Released Jun 02, 2021 WEI x86 64bit/MS Window

--- GAMS/Cplex Link licensed for continuous and discrete problems.
--- GMO memory 0.52 Mb (peak 0.52 Mb)
--- Dictionary memory 0.00 Mb
--- Cplex 20.1.0.1 link memory 0.00 Mb (peak 0.01 Mb)
--- Starting Cplex

Version identifier: 20.1.0.1 | 2021-04-07 | 3a818710c
CPXPARAM_Advance                                 0
CPXPARAM_Threads                                 1
CPXPARAM_MIP_Display                             4
CPXPARAM_MIP_Tolerances_AbsMIPGap                0
Generic callback                                 0x50
Tried aggregator 6 times.
MIP Presolve eliminated 72 rows and 52 columns.
MIP Presolve modified 47 coefficients.
Aggregator did 13 substitutions.
All rows and columns eliminated.
Presolve time = 0.00 sec. (0.43 ticks)

Root node processing (before b&c):
  Real time             =    0.00 sec. (0.45 ticks)
Sequential b&c:
  Real time             =    0.00 sec. (0.00 ticks)
                          ------------
Total (root+branch&cut) =    0.00 sec. (0.45 ticks)

--- MIP status (101): integer optimal solution.
--- Cplex Time: 0.06sec (det. 0.45 ticks)

--- Fixing integer variables and solving final LP...

Version identifier: 20.1.0.1 | 2021-04-07 | 3a818710c
CPXPARAM_Advance                                 2
CPXPARAM_Threads                                 1
CPXPARAM_MIP_Display                             4
CPXPARAM_MIP_Tolerances_AbsMIPGap                0
Tried aggregator 1 time.
LP Presolve eliminated 85 rows and 65 columns.
All rows and columns eliminated.
Presolve time = 0.00 sec. (0.05 ticks)

--- Fixed MIP status (1): optimal.
--- Cplex Time: 0.00sec (det. 0.08 ticks)


Proven optimal solution
MIP Solution:            0.000000    (0 iterations, 0 nodes)
Final Solve:             0.000000    (0 iterations)

Best possible:           0.000000
Absolute gap:            0.000000
Relative gap:            0.000000

--- Reading solution for model Enumerate
--- Executing after solve: elapsed 0:00:01.033
--- StableMarriage2.gms(109) 4 Mb
--- Generating MIP model Enumerate
--- StableMarriage2.gms(110) 4 Mb
--- LOOPS sol = sol7
---   87 rows  65 columns  625 non-zeroes
---   64 discrete-columns
--- Executing CPLEX (Solvelink=5): elapsed 0:00:01.041

IBM ILOG CPLEX   35.2.0 r33388c4 Released Jun 02, 2021 WEI x86 64bit/MS Window

--- GAMS/Cplex Link licensed for continuous and discrete problems.
--- GMO memory 0.52 Mb (peak 0.52 Mb)
--- Dictionary memory 0.00 Mb
--- Cplex 20.1.0.1 link memory 0.00 Mb (peak 0.01 Mb)
--- Starting Cplex

Version identifier: 20.1.0.1 | 2021-04-07 | 3a818710c
CPXPARAM_Advance                                 0
CPXPARAM_Threads                                 1
CPXPARAM_MIP_Display                             4
CPXPARAM_MIP_Tolerances_AbsMIPGap                0
Generic callback                                 0x50
Tried aggregator 5 times.
MIP Presolve eliminated 75 rows and 54 columns.
MIP Presolve added 1 rows and 1 columns.
MIP Presolve modified 43 coefficients.
Aggregator did 12 substitutions.
All rows and columns eliminated.
Presolve time = 0.00 sec. (0.43 ticks)

Root node processing (before b&c):
  Real time             =    0.00 sec. (0.45 ticks)
Sequential b&c:
  Real time             =    0.00 sec. (0.00 ticks)
                          ------------
Total (root+branch&cut) =    0.00 sec. (0.45 ticks)

--- MIP status (101): integer optimal solution.
--- Cplex Time: 0.03sec (det. 0.45 ticks)

--- Fixing integer variables and solving final LP...

Version identifier: 20.1.0.1 | 2021-04-07 | 3a818710c
CPXPARAM_Advance                                 2
CPXPARAM_Threads                                 1
CPXPARAM_MIP_Display                             4
CPXPARAM_MIP_Tolerances_AbsMIPGap                0
Tried aggregator 1 time.
LP Presolve eliminated 86 rows and 65 columns.
All rows and columns eliminated.
Presolve time = 0.06 sec. (0.05 ticks)

--- Fixed MIP status (1): optimal.
--- Cplex Time: 0.06sec (det. 0.08 ticks)


Proven optimal solution
MIP Solution:            0.000000    (0 iterations, 0 nodes)
Final Solve:             0.000000    (0 iterations)

Best possible:           0.000000
Absolute gap:            0.000000
Relative gap:            0.000000

--- Reading solution for model Enumerate
--- Executing after solve: elapsed 0:00:01.165
--- StableMarriage2.gms(109) 4 Mb
--- Generating MIP model Enumerate
--- StableMarriage2.gms(110) 4 Mb
--- LOOPS sol = sol8
---   88 rows  65 columns  633 non-zeroes
---   64 discrete-columns
--- Executing CPLEX (Solvelink=5): elapsed 0:00:01.172

IBM ILOG CPLEX   35.2.0 r33388c4 Released Jun 02, 2021 WEI x86 64bit/MS Window

--- GAMS/Cplex Link licensed for continuous and discrete problems.
--- GMO memory 0.52 Mb (peak 0.52 Mb)
--- Dictionary memory 0.00 Mb
--- Cplex 20.1.0.1 link memory 0.00 Mb (peak 0.01 Mb)
--- Starting Cplex

Version identifier: 20.1.0.1 | 2021-04-07 | 3a818710c
CPXPARAM_Advance                                 0
CPXPARAM_Threads                                 1
CPXPARAM_MIP_Display                             4
CPXPARAM_MIP_Tolerances_AbsMIPGap                0
Generic callback                                 0x50
Tried aggregator 4 times.
MIP Presolve eliminated 76 rows and 54 columns.
MIP Presolve modified 47 coefficients.
Aggregator did 11 substitutions.
All rows and columns eliminated.
Presolve time = 0.00 sec. (0.43 ticks)

Root node processing (before b&c):
  Real time             =    0.02 sec. (0.45 ticks)
Sequential b&c:
  Real time             =    0.00 sec. (0.00 ticks)
                          ------------
Total (root+branch&cut) =    0.02 sec. (0.45 ticks)

--- MIP status (101): integer optimal solution.
--- Cplex Time: 0.03sec (det. 0.45 ticks)

--- Fixing integer variables and solving final LP...

Version identifier: 20.1.0.1 | 2021-04-07 | 3a818710c
CPXPARAM_Advance                                 2
CPXPARAM_Threads                                 1
CPXPARAM_MIP_Display                             4
CPXPARAM_MIP_Tolerances_AbsMIPGap                0
Tried aggregator 1 time.
LP Presolve eliminated 87 rows and 65 columns.
All rows and columns eliminated.
Presolve time = 0.00 sec. (0.05 ticks)

--- Fixed MIP status (1): optimal.
--- Cplex Time: 0.00sec (det. 0.08 ticks)


Proven optimal solution
MIP Solution:            0.000000    (0 iterations, 0 nodes)
Final Solve:             0.000000    (0 iterations)

Best possible:           0.000000
Absolute gap:            0.000000
Relative gap:            0.000000

--- Reading solution for model Enumerate
--- Executing after solve: elapsed 0:00:01.276
--- StableMarriage2.gms(109) 4 Mb
--- Generating MIP model Enumerate
--- StableMarriage2.gms(110) 4 Mb
--- LOOPS sol = sol9
---   89 rows  65 columns  641 non-zeroes
---   64 discrete-columns
--- Executing CPLEX (Solvelink=5): elapsed 0:00:01.300

IBM ILOG CPLEX   35.2.0 r33388c4 Released Jun 02, 2021 WEI x86 64bit/MS Window

--- GAMS/Cplex Link licensed for continuous and discrete problems.
--- GMO memory 0.52 Mb (peak 0.52 Mb)
--- Dictionary memory 0.00 Mb
--- Cplex 20.1.0.1 link memory 0.00 Mb (peak 0.01 Mb)
--- Starting Cplex

Version identifier: 20.1.0.1 | 2021-04-07 | 3a818710c
CPXPARAM_Advance                                 0
CPXPARAM_Threads                                 1
CPXPARAM_MIP_Display                             4
CPXPARAM_MIP_Tolerances_AbsMIPGap                0
Generic callback                                 0x50
Tried aggregator 4 times.
MIP Presolve eliminated 77 rows and 54 columns.
MIP Presolve modified 57 coefficients.
Aggregator did 11 substitutions.
All rows and columns eliminated.
Presolve time = 0.05 sec. (0.44 ticks)

Root node processing (before b&c):
  Real time             =    0.05 sec. (0.47 ticks)
Sequential b&c:
  Real time             =    0.00 sec. (0.00 ticks)
                          ------------
Total (root+branch&cut) =    0.05 sec. (0.47 ticks)

--- MIP status (101): integer optimal solution.
--- Cplex Time: 0.05sec (det. 0.47 ticks)

--- Fixing integer variables and solving final LP...

Version identifier: 20.1.0.1 | 2021-04-07 | 3a818710c
CPXPARAM_Advance                                 2
CPXPARAM_Threads                                 1
CPXPARAM_MIP_Display                             4
CPXPARAM_MIP_Tolerances_AbsMIPGap                0
Tried aggregator 1 time.
LP Presolve eliminated 88 rows and 65 columns.
All rows and columns eliminated.
Presolve time = 0.00 sec. (0.05 ticks)

--- Fixed MIP status (1): optimal.
--- Cplex Time: 0.00sec (det. 0.08 ticks)


Proven optimal solution
MIP Solution:            0.000000    (0 iterations, 0 nodes)
Final Solve:             0.000000    (0 iterations)

Best possible:           0.000000
Absolute gap:            0.000000
Relative gap:            0.000000

--- Reading solution for model Enumerate
--- Executing after solve: elapsed 0:00:01.443
--- StableMarriage2.gms(109) 4 Mb
--- Generating MIP model Enumerate
--- StableMarriage2.gms(110) 4 Mb
--- LOOPS sol = sol10
---   90 rows  65 columns  649 non-zeroes
---   64 discrete-columns
--- Executing CPLEX (Solvelink=5): elapsed 0:00:01.448

IBM ILOG CPLEX   35.2.0 r33388c4 Released Jun 02, 2021 WEI x86 64bit/MS Window

--- GAMS/Cplex Link licensed for continuous and discrete problems.
--- GMO memory 0.52 Mb (peak 0.52 Mb)
--- Dictionary memory 0.00 Mb
--- Cplex 20.1.0.1 link memory 0.00 Mb (peak 0.01 Mb)
--- Starting Cplex

Version identifier: 20.1.0.1 | 2021-04-07 | 3a818710c
CPXPARAM_Advance                                 0
CPXPARAM_Threads                                 1
CPXPARAM_MIP_Display                             4
CPXPARAM_MIP_Tolerances_AbsMIPGap                0
Generic callback                                 0x50
Row 'cut(sol4)' infeasible, all entries at implied bounds.
Presolve time = 0.00 sec. (0.43 ticks)

Root node processing (before b&c):
  Real time             =    0.00 sec. (0.45 ticks)
Sequential b&c:
  Real time             =    0.00 sec. (0.00 ticks)
                          ------------
Total (root+branch&cut) =    0.00 sec. (0.45 ticks)

--- MIP status (103): integer infeasible.
--- Cplex Time: 0.00sec (det. 0.45 ticks)

CPLEX Error  1217: No solution exists.
--- Problem is integer infeasible
--- Reading solution for model Enumerate
--- Executing after solve: elapsed 0:00:01.509
--- StableMarriage2.gms(119) 4 Mb
*** Status: Normal completion
--- Job StableMarriage2.gms Stop 08/16/21 08:40:32 elapsed 0:00:01.567
